benchmarks_CP/INST_36x36/20/inst36x36_20_36.dzn
S=6;
start=[|
-1,	19,	-1,	-1,	-1,	9,	-1,	2,	-1,	-1,	-1,	22,	-1,	-1,	-1,	-1,	-1,	-1,	-1,	-1,	-1,	4,	10,	-1,	11,	-1,	12,	-1,	-1,	16,	-1,	17,	33,	-1,	-1,	-1|
1,	-1,	-1,	-1,	-1,	-1,	-1,	-1,	-1,	-1,	20,	-1,	-1,	-1,	-1,	-1,	16,	-1,	-1,	25,	-1,	-1,	-1,	-1,	-1,	-1,	-1,	-1,	-1,	26,	-1,	-1,	-1,	32,	-1,	15|
-1,	-1,	11,	-1,	-1,	-1,	4,	-1,	19,	-1,	35,	6,	29,	-1,	8,	-1,	-1,	-1,	-1,	-1,	-1,	-1,	-1,	-1,	-1,	-1,	-1,	-1,	-1,	-1,	-1,	-1,	-1,	16,	-1,	10|
-1,	-1,	36,	-1,	-1,	-1,	31,	-1,	-1,	-1,	29,	-1,	-1,	7,	32,	5,	-1,	-1,	-1,	-1,	22,	26,	-1,	-1,	33,	-1,	-1,	-1,	13,	21,	-1,	12,	28,	-1,	-1,	-1|
17,	-1,	-1,	-1,	-1,	-1,	-1,	26,	-1,	-1,	-1,	-1,	27,	36,	-1,	-1,	-1,	-1,	-1,	31,	-1,	-1,	-1,	-1,	-1,	-1,	-1,	-1,	-1,	-1,	-1,	7,	4,	-1,	-1,	-1|
-1,	-1,	-1,	-1,	4,	-1,	-1,	-1,	-1,	16,	33,	-1,	-1,	-1,	-1,	2,	-1,	-1,	35,	-1,	-1,	-1,	-1,	-1,	36,	-1,	-1,	-1,	-1,	-1,	-1,	-1,	-1,	21,	34,	-1|
5,	22,	-1,	-1,	-1,	-1,	-1,	-1,	-1,	-1,	-1,	-1,	-1,	-1,	19,	-1,	-1,	-1,	-1,	16,	-1,	-1,	-1,	-1,	-1,	6,	-1,	27,	-1,	-1,	-1,	-1,	-1,	11,	-1,	-1|
-1,	-1,	1,	-1,	-1,	-1,	-1,	4,	5,	-1,	16,	-1,	-1,	-1,	-1,	-1,	-1,	-1,	-1,	-1,	-1,	32,	-1,	-1,	-1,	-1,	-1,	14,	-1,	-1,	-1,	19,	-1,	-1,	-1,	-1|
-1,	-1,	-1,	-1,	-1,	11,	-1,	-1,	-1,	-1,	23,	-1,	-1,	-1,	-1,	-1,	-1,	-1,	-1,	-1,	-1,	-1,	-1,	19,	12,	-1,	-1,	-1,	35,	-1,	27,	16,	-1,	26,	-1,	-1|
-1,	-1,	-1,	18,	-1,	-1,	-1,	17,	-1,	-1,	-1,	10,	-1,	-1,	-1,	-1,	-1,	-1,	-1,	-1,	-1,	3,	-1,	36,	-1,	-1,	-1,	4,	-1,	-1,	-1,	-1,	-1,	-1,	-1,	-1|
-1,	-1,	-1,	-1,	-1,	-1,	-1,	-1,	-1,	-1,	-1,	9,	7,	-1,	-1,	-1,	-1,	-1,	-1,	-1,	-1,	-1,	18,	11,	-1,	29,	-1,	-1,	-1,	-1,	-1,	-1,	-1,	-1,	-1,	-1|
-1,	14,	-1,	-1,	-1,	-1,	-1,	-1,	-1,	-1,	15,	-1,	34,	-1,	36,	-1,	-1,	2,	-1,	-1,	-1,	-1,	-1,	-1,	-1,	-1,	-1,	-1,	-1,	-1,	-1,	-1,	-1,	-1,	-1,	-1|
-1,	1,	-1,	-1,	-1,	-1,	-1,	-1,	-1,	-1,	-1,	-1,	-1,	-1,	-1,	-1,	-1,	-1,	-1,	-1,	-1,	-1,	-1,	-1,	-1,	-1,	-1,	-1,	-1,	-1,	-1,	-1,	-1,	-1,	-1,	16|
-1,	-1,	-1,	-1,	-1,	10,	-1,	-1,	17,	-1,	-1,	31,	-1,	-1,	-1,	-1,	-1,	-1,	-1,	-1,	-1,	-1,	-1,	-1,	30,	-1,	-1,	-1,	-1,	-1,	-1,	-1,	-1,	-1,	-1,	32|
-1,	31,	-1,	-1,	-1,	-1,	-1,	-1,	-1,	-1,	-1,	-1,	-1,	-1,	-1,	-1,	-1,	-1,	20,	3,	-1,	25,	-1,	-1,	-1,	-1,	-1,	-1,	4,	-1,	-1,	-1,	-1,	-1,	-1,	-1|
-1,	-1,	-1,	-1,	-1,	28,	-1,	25,	-1,	4,	-1,	-1,	-1,	13,	-1,	9,	30,	-1,	-1,	-1,	14,	-1,	-1,	-1,	-1,	-1,	-1,	-1,	-1,	20,	-1,	8,	-1,	-1,	-1,	-1|
-1,	-1,	-1,	-1,	-1,	-1,	8,	-1,	-1,	-1,	-1,	-1,	-1,	4,	-1,	-1,	-1,	-1,	-1,	18,	-1,	-1,	-1,	31,	26,	-1,	-1,	-1,	-1,	-1,	29,	-1,	-1,	-1,	-1,	22|
-1,	-1,	29,	-1,	-1,	-1,	-1,	-1,	-1,	-1,	-1,	-1,	-1,	34,	-1,	12,	-1,	8,	-1,	21,	28,	-1,	-1,	-1,	-1,	-1,	-1,	-1,	-1,	-1,	-1,	23,	-1,	-1,	20,	-1|
-1,	-1,	-1,	-1,	-1,	-1,	-1,	-1,	-1,	-1,	-1,	-1,	-1,	-1,	22,	-1,	2,	-1,	-1,	-1,	-1,	-1,	-1,	-1,	-1,	-1,	-1,	11,	-1,	-1,	-1,	-1,	-1,	-1,	16,	21|
-1,	30,	-1,	-1,	-1,	-1,	-1,	15,	-1,	29,	-1,	-1,	-1,	-1,	-1,	-1,	-1,	-1,	11,	-1,	-1,	-1,	22,	34,	-1,	-1,	-1,	17,	-1,	-1,	18,	-1,	25,	-1,	-1,	-1|
-1,	-1,	-1,	-1,	28,	-1,	-1,	36,	-1,	-1,	-1,	-1,	-1,	-1,	-1,	-1,	-1,	23,	-1,	-1,	-1,	-1,	-1,	-1,	16,	-1,	-1,	-1,	-1,	-1,	-1,	-1,	11,	-1,	-1,	-1|
-1,	-1,	3,	-1,	-1,	34,	-1,	-1,	-1,	5,	-1,	-1,	-1,	-1,	29,	-1,	-1,	-1,	-1,	-1,	-1,	-1,	-1,	-1,	-1,	-1,	6,	-1,	-1,	-1,	-1,	-1,	-1,	-1,	-1,	-1|
-1,	-1,	-1,	26,	-1,	-1,	10,	-1,	-1,	-1,	-1,	-1,	15,	-1,	-1,	7,	-1,	-1,	-1,	-1,	-1,	-1,	-1,	-1,	-1,	-1,	-1,	-1,	-1,	-1,	-1,	1,	17,	-1,	-1,	-1|
-1,	-1,	-1,	-1,	-1,	31,	-1,	-1,	-1,	-1,	-1,	-1,	-1,	33,	-1,	-1,	14,	-1,	-1,	-1,	-1,	-1,	-1,	-1,	27,	-1,	-1,	-1,	29,	-1,	-1,	-1,	-1,	-1,	-1,	36|
-1,	-1,	-1,	-1,	-1,	20,	36,	-1,	-1,	-1,	-1,	-1,	-1,	-1,	-1,	21,	-1,	3,	13,	-1,	-1,	-1,	-1,	-1,	7,	-1,	5,	-1,	-1,	-1,	30,	-1,	-1,	-1,	-1,	-1|
-1,	5,	-1,	25,	26,	-1,	-1,	-1,	-1,	-1,	14,	-1,	-1,	-1,	-1,	-1,	7,	36,	-1,	-1,	2,	-1,	-1,	17,	-1,	-1,	3,	-1,	-1,	12,	-1,	-1,	-1,	-1,	-1,	-1|
-1,	-1,	18,	-1,	17,	-1,	-1,	-1,	-1,	-1,	-1,	-1,	-1,	-1,	-1,	-1,	-1,	-1,	-1,	-1,	-1,	-1,	-1,	4,	-1,	-1,	-1,	-1,	6,	-1,	-1,	-1,	-1,	-1,	-1,	-1|
29,	2,	-1,	-1,	-1,	-1,	-1,	-1,	-1,	20,	-1,	-1,	12,	-1,	-1,	30,	-1,	-1,	-1,	-1,	-1,	-1,	-1,	27,	-1,	-1,	14,	-1,	-1,	1,	-1,	-1,	-1,	-1,	-1,	4|
-1,	-1,	-1,	-1,	-1,	23,	-1,	-1,	4,	-1,	-1,	-1,	-1,	35,	-1,	-1,	-1,	-1,	28,	1,	-1,	19,	-1,	-1,	-1,	-1,	-1,	30,	-1,	-1,	13,	-1,	-1,	-1,	-1,	-1|
-1,	-1,	8,	-1,	-1,	22,	-1,	-1,	-1,	26,	-1,	27,	2,	-1,	28,	-1,	-1,	-1,	7,	-1,	6,	-1,	-1,	-1,	-1,	-1,	-1,	-1,	25,	-1,	-1,	-1,	-1,	-1,	-1,	-1|
-1,	-1,	-1,	-1,	-1,	-1,	-1,	-1,	10,	-1,	4,	-1,	22,	-1,	-1,	-1,	-1,	-1,	-1,	-1,	-1,	-1,	-1,	-1,	-1,	-1,	-1,	-1,	28,	24,	-1,	-1,	-1,	-1,	-1,	-1|
-1,	-1,	-1,	-1,	-1,	29,	-1,	-1,	-1,	-1,	-1,	-1,	-1,	-1,	-1,	13,	-1,	-1,	-1,	-1,	-1,	-1,	-1,	25,	-1,	-1,	-1,	15,	-1,	-1,	22,	-1,	-1,	-1,	-1,	-1|
15,	-1,	-1,	-1,	-1,	-1,	5,	-1,	9,	30,	28,	-1,	-1,	-1,	-1,	-1,	-1,	26,	-1,	-1,	-1,	-1,	-1,	-1,	-1,	12,	-1,	-1,	-1,	-1,	-1,	-1,	-1,	-1,	7,	-1|
-1,	36,	-1,	-1,	19,	-1,	6,	-1,	-1,	25,	13,	16,	31,	-1,	-1,	-1,	-1,	-1,	-1,	-1,	-1,	-1,	4,	-1,	20,	-1,	1,	-1,	-1,	-1,	15,	-1,	-1,	-1,	-1,	-1|
-1,	-1,	10,	11,	-1,	-1,	-1,	-1,	-1,	-1,	-1,	-1,	-1,	15,	-1,	-1,	28,	-1,	-1,	-1,	-1,	-1,	-1,	23,	-1,	36,	-1,	2,	-1,	-1,	21,	-1,	-1,	-1,	-1,	-1|
-1,	-1,	-1,	17,	-1,	-1,	-1,	32,	22,	-1,	-1,	36,	-1,	-1,	-1,	-1,	4,	18,	-1,	-1,	29,	-1,	-1,	2,	-1,	-1,	-1,	-1,	-1,	31,	-1,	-1,	-1,	-1,	-1,	-1|];
